Minimize

2.0 x_0 + 3.0 x_1 + 5.0 x_2 + 3.5 x_3 + 1.5 x_4


Subject To

a0: x_0 - c_0 <= 0
a1: x_1 - c_0 <= 0
a2: x_2 - c_0 <= 0
a3: x_3 - c_2 <= 0
a4: x_4 - c_1 <= 0
b0: 0 x_0 + 0 x_1 + 1 x_2 + 1 x_3 + 0 x_4 >= 1
b1: 1 x_0 + 0 x_1 + 0 x_2 + 0 x_3 + 0 x_4 >= 1
b2: 1 x_0 + 0 x_1 + 0 x_2 + 1 x_3 + 0 x_4 >= 1
b3: 0 x_0 + 1 x_1 + 0 x_2 + 1 x_3 + 1 x_4 >= 1
b4: 0 x_0 + 0 x_1 + 1 x_2 + 0 x_3 + 1 x_4 >= 1
c0: c_0 + c_1 + c_2 <= 2




Binary

x_0 x_1 x_2 x_3 x_4 c_0 c_1 c_2

 


End
